
Gurobi 8.0.1 (linux64, Python) logging started Mon Dec  7 10:32:47 2020

Academic license - for non-commercial use only
Optimize a model with 2005 rows, 9897 columns and 3795895 nonzeros
Model has 6001 general constraints
Variable types: 8006 continuous, 1891 integer (1891 binary)
Coefficient statistics:
  Matrix range     [1e+00, 8e+01]
  Objective range  [1e+00, 1e+00]
  Bounds range     [1e+00, 1e+02]
  RHS range        [1e+00, 1e+00]
Presolve removed 10004 rows and 12978 columns (presolve time = 5s) ...
Presolve added 10001 rows and 3030 columns
Presolve time: 8.88s
Presolved: 12006 rows, 12927 columns, 1872929 nonzeros
Presolved model has 4 SOS constraint(s)
Variable types: 8006 continuous, 4921 integer (4921 binary)
Found heuristic solution: objective 16486.590207

Deterministic concurrent LP optimizer: primal and dual simplex
Showing first log only...

Presolve removed 4001 rows and 4006 columns
Presolved: 8005 rows, 8921 columns, 1864923 nonzeros


Root simplex log...

Iteration    Objective       Primal Inf.    Dual Inf.      Time
       0    0.0000000e+00   1.223329e+03   1.031093e+12     10s
    2151    0.0000000e+00   0.000000e+00   0.000000e+00     10s
    2151    0.0000000e+00   0.000000e+00   0.000000e+00     10s
Concurrent spin time: 0.00s

Solved with primal simplex

Root relaxation: objective 0.000000e+00, 2151 iterations, 0.48 seconds
Total elapsed time = 11.64s

    Nodes    |    Current Node    |     Objective Bounds      |     Work
 Expl Unexpl |  Obj  Depth IntInf | Incumbent    BestBd   Gap | It/Node Time

     0     0    0.00000    0    1 16486.5902    0.00000   100%     -   12s
H    0     0                    3757.4791755    0.00000   100%     -   13s
     0     0    0.00000    0    1 3757.47918    0.00000   100%     -   15s
     0     2    0.00000    0    1 3757.47918    0.00000   100%     -   16s
     3     6 1722.74204    2    3 3757.47918    0.00000   100%   779   20s
*    6     6               2    2160.4316483    0.00000   100%  1352   20s
*   11     4               3    2160.3980370 1146.67632  46.9%  1476   23s
    30     8 1743.77896    8    4 2160.39804 1258.40510  41.8%   824   26s
*   53    18              10    1862.7047205 1258.40510  32.4%   509   26s
*   77    27              13    1282.7590456 1258.40510  1.90%   379   26s
*   88    15              14    1259.0026407 1258.40510  0.05%   332   26s
*  100     7              16    1258.9433584 1258.40510  0.04%   293   27s

Cutting planes:
  Implied bound: 23

Explored 148 nodes (35319 simplex iterations) in 28.97 seconds
Thread count was 12 (of 12 available processors)

Solution count 8: 1258.94 1259 1282.76 ... 16486.6

Optimal solution found (tolerance 1.00e-04)
Best objective 1.258943358421e+03, best bound 1.258825048447e+03, gap 0.0094%

Gurobi 8.0.1 (linux64, Python) logging started Mon Dec  7 10:51:51 2020

Academic license - for non-commercial use only
Optimize a model with 2005 rows, 9897 columns and 3795895 nonzeros
Model has 6001 general constraints
Variable types: 8006 continuous, 1891 integer (1891 binary)
Coefficient statistics:
  Matrix range     [1e+00, 8e+01]
  Objective range  [1e+00, 1e+00]
  Bounds range     [1e+00, 1e+02]
  RHS range        [1e+00, 1e+00]
Presolve removed 10004 rows and 16978 columns (presolve time = 6s) ...
Presolve added 10001 rows and 3030 columns
Presolve time: 8.40s
Presolved: 12006 rows, 12927 columns, 1872929 nonzeros
Presolved model has 4 SOS constraint(s)
Variable types: 8006 continuous, 4921 integer (4921 binary)
Found heuristic solution: objective 16486.590207

Deterministic concurrent LP optimizer: primal and dual simplex
Showing first log only...

Presolve removed 4001 rows and 4006 columns
Presolved: 8005 rows, 8921 columns, 1864923 nonzeros


Root simplex log...

Iteration    Objective       Primal Inf.    Dual Inf.      Time
       0    0.0000000e+00   1.223329e+03   1.031093e+12      9s
    2151    0.0000000e+00   0.000000e+00   0.000000e+00      9s
    2151    0.0000000e+00   0.000000e+00   0.000000e+00      9s
Concurrent spin time: 0.00s

Solved with primal simplex

Root relaxation: objective 0.000000e+00, 2151 iterations, 0.52 seconds
Total elapsed time = 11.21s

    Nodes    |    Current Node    |     Objective Bounds      |     Work
 Expl Unexpl |  Obj  Depth IntInf | Incumbent    BestBd   Gap | It/Node Time

     0     0    0.00000    0    1 16486.5902    0.00000   100%     -   12s
H    0     0                    3757.4791755    0.00000   100%     -   12s
     0     0    0.00000    0    1 3757.47918    0.00000   100%     -   14s
     0     2    0.00000    0    1 3757.47918    0.00000   100%     -   15s
     3     6 1722.74204    2    3 3757.47918    0.00000   100%   779   20s
*    6     6               2    2160.4316483    0.00000   100%  1352   20s
*   11     4               3    2160.3980370 1146.67632  46.9%  1476   23s
    30     8 1743.77896    8    4 2160.39804 1258.40510  41.8%   824   25s
*   53    18              10    1862.7047205 1258.40510  32.4%   509   26s
*   77    27              13    1282.7590456 1258.40510  1.90%   379   26s
*   88    15              14    1259.0026407 1258.40510  0.05%   332   26s
*  100     7              16    1258.9433584 1258.40510  0.04%   293   26s

Cutting planes:
  Implied bound: 23

Explored 148 nodes (35319 simplex iterations) in 28.58 seconds
Thread count was 12 (of 12 available processors)

Solution count 8: 1258.94 1259 1282.76 ... 16486.6

Optimal solution found (tolerance 1.00e-04)
Best objective 1.258943358421e+03, best bound 1.258825048447e+03, gap 0.0094%

Gurobi 8.0.1 (linux64, Python) logging started Mon Dec  7 10:53:06 2020

Academic license - for non-commercial use only
Optimize a model with 2005 rows, 9897 columns and 3795895 nonzeros
Model has 6001 general constraints
Variable types: 8006 continuous, 1891 integer (1891 binary)
Coefficient statistics:
  Matrix range     [1e+00, 8e+01]
  Objective range  [1e+00, 1e+00]
  Bounds range     [1e+00, 1e+02]
  RHS range        [1e+00, 1e+00]
Presolve removed 10004 rows and 16978 columns (presolve time = 6s) ...
Presolve added 10001 rows and 3030 columns
Presolve time: 8.53s
Presolved: 12006 rows, 12927 columns, 1872929 nonzeros
Presolved model has 4 SOS constraint(s)
Variable types: 8006 continuous, 4921 integer (4921 binary)
Found heuristic solution: objective 16486.590207

Deterministic concurrent LP optimizer: primal and dual simplex
Showing first log only...

Presolve removed 4001 rows and 4006 columns
Presolved: 8005 rows, 8921 columns, 1864923 nonzeros


Root simplex log...

Iteration    Objective       Primal Inf.    Dual Inf.      Time
       0    0.0000000e+00   1.223329e+03   1.031093e+12      9s
    2151    0.0000000e+00   0.000000e+00   0.000000e+00      9s
    2151    0.0000000e+00   0.000000e+00   0.000000e+00      9s
Concurrent spin time: 0.00s

Solved with primal simplex

Root relaxation: objective 0.000000e+00, 2151 iterations, 0.49 seconds
Total elapsed time = 11.22s

    Nodes    |    Current Node    |     Objective Bounds      |     Work
 Expl Unexpl |  Obj  Depth IntInf | Incumbent    BestBd   Gap | It/Node Time

     0     0    0.00000    0    1 16486.5902    0.00000   100%     -   12s
H    0     0                    3757.4791755    0.00000   100%     -   12s
     0     0    0.00000    0    1 3757.47918    0.00000   100%     -   14s
     0     2    0.00000    0    1 3757.47918    0.00000   100%     -   15s
     3     6 1722.74204    2    3 3757.47918    0.00000   100%   779   20s
*    6     6               2    2160.4316483    0.00000   100%  1352   20s
*   11     4               3    2160.3980370 1146.67632  46.9%  1476   23s
    30     8 1743.77896    8    4 2160.39804 1258.40510  41.8%   824   25s
*   53    18              10    1862.7047205 1258.40510  32.4%   509   26s
*   77    27              13    1282.7590456 1258.40510  1.90%   379   26s
*   88    15              14    1259.0026407 1258.40510  0.05%   332   26s
*  100     7              16    1258.9433584 1258.40510  0.04%   293   26s

Cutting planes:
  Implied bound: 23

Explored 148 nodes (35319 simplex iterations) in 28.51 seconds
Thread count was 12 (of 12 available processors)

Solution count 8: 1258.94 1259 1282.76 ... 16486.6

Optimal solution found (tolerance 1.00e-04)
Best objective 1.258943358421e+03, best bound 1.258825048447e+03, gap 0.0094%
Optimize a model with 2005 rows, 9897 columns and 3795895 nonzeros
Model has 6001 general constraints
Variable types: 8006 continuous, 1891 integer (1891 binary)
Coefficient statistics:
  Matrix range     [1e+00, 5e+01]
  Objective range  [1e+00, 1e+00]
  Bounds range     [1e+00, 1e+02]
  RHS range        [1e+00, 1e+00]
Presolve removed 10004 rows and 12405 columns (presolve time = 5s) ...
Presolve added 10001 rows and 3603 columns
Presolve time: 9.85s
Presolved: 12006 rows, 13500 columns, 3019502 nonzeros
Presolved model has 4 SOS constraint(s)
Variable types: 8006 continuous, 5494 integer (5494 binary)

Deterministic concurrent LP optimizer: primal and dual simplex
Showing first log only...

Presolve removed 4001 rows and 4006 columns
Presolved: 8005 rows, 9494 columns, 3011496 nonzeros


Root simplex log...

Iteration    Objective       Primal Inf.    Dual Inf.      Time
       0    0.0000000e+00   1.922721e+03   3.073389e+12     11s
    2172    0.0000000e+00   0.000000e+00   0.000000e+00     11s
    2172    0.0000000e+00   0.000000e+00   0.000000e+00     11s
Concurrent spin time: 0.00s

Solved with primal simplex

Root relaxation: objective 0.000000e+00, 2172 iterations, 0.85 seconds
Total elapsed time = 15.06s

    Nodes    |    Current Node    |     Objective Bounds      |     Work
 Expl Unexpl |  Obj  Depth IntInf | Incumbent    BestBd   Gap | It/Node Time

     0     0    0.00000    0    5          -    0.00000      -     -   17s
     0     0    0.00000    0    6          -    0.00000      -     -   22s
     0     0    0.00000    0    6          -    0.00000      -     -   23s
     0     0    0.00000    0    1          -    0.00000      -     -   30s
     0     0    0.00000    0    1          -    0.00000      -     -   33s
     0     2    0.00000    0    1          -    0.00000      -     -   35s
     1     4 1420.29668    1   15          -    0.00000      -  8085   40s
     3     8 1426.36920    2   16          -    0.00000      -  3052   48s
     7    14 1427.59060    3   18          -    0.00000      -  3104   52s
    13    18 1427.65056    4   19          -    0.00000      -  2658   61s
   142   115 1434.18710   20   18          -  602.86487      -   382   65s
   693   611 1517.04386   58    9          -  602.86487      -  90.3   70s
*  854   202               8    2185.3274956  602.86487  72.4%  77.6   71s
*  880   198              12    2051.3910751  618.65285  69.8%  83.5   71s
   882   191     cutoff   66      2051.39108  619.51851  69.8%  87.0   76s
*  887   130              73    1277.6770229  619.51851  51.5%  92.2   76s
*  947    29              54     873.9413643  734.38102  16.0%   149   78s
   977     5 infeasible   72       873.94136  757.64817  13.3%   160   80s
  1045     3  771.40348  117   22  873.94136  770.84336  11.8%   166   85s
* 1059     6             123     873.6113377  772.71950  11.5%   167   86s
  1108     3     cutoff  146       873.61134  781.10623  10.6%   172   90s
* 1139     6             162     872.9953022  785.47033  10.0%   174   92s
* 1169     6             175     871.6323719  788.97152  9.48%   174   94s
  1179     4     cutoff  183       871.63237  790.88836  9.26%   175   95s
* 1244     4             214     870.8478489  802.73757  7.82%   175   98s
  1251     4     cutoff  219       870.84785  803.97742  7.68%   175  100s
  1340     5     cutoff  263       870.84785  817.29348  6.15%   173  105s
  1421     7     cutoff  305       870.84785  831.69873  4.50%   170  110s
  1502     2  847.26647  344   18  870.84785  847.26647  2.71%   166  115s

Cutting planes:
  MIR: 34

Explored 1527 nodes (258399 simplex iterations) in 116.78 seconds
Thread count was 12 (of 12 available processors)

Solution count 8: 870.848 871.632 872.995 ... 2185.33

Optimal solution found (tolerance 1.00e-04)
Best objective 8.708478488922e+02, best bound 8.708478488922e+02, gap 0.0000%
Optimize a model with 2005 rows, 9897 columns and 3795895 nonzeros
Model has 6001 general constraints
Variable types: 8006 continuous, 1891 integer (1891 binary)
Coefficient statistics:
  Matrix range     [1e+00, 8e+01]
  Objective range  [1e+00, 1e+00]
  Bounds range     [1e+00, 1e+02]
  RHS range        [1e+00, 1e+00]
Presolve removed 14004 rows and 16568 columns (presolve time = 5s) ...
Presolve added 10001 rows and 3440 columns
Presolve time: 7.80s
Presolved: 12006 rows, 13337 columns, 2693339 nonzeros
Presolved model has 4 SOS constraint(s)
Variable types: 8006 continuous, 5331 integer (5331 binary)

Deterministic concurrent LP optimizer: primal and dual simplex
Showing first log only...

Presolve removed 4005 rows and 4009 columns
Presolved: 8001 rows, 9328 columns, 2677327 nonzeros


Root simplex log...

Iteration    Objective       Primal Inf.    Dual Inf.      Time
       0    0.0000000e+00   1.501871e+03   2.387770e+12      9s
    1668    0.0000000e+00   0.000000e+00   0.000000e+00      9s
    1668    0.0000000e+00   0.000000e+00   0.000000e+00      9s
Concurrent spin time: 0.00s

Solved with primal simplex

Root relaxation: objective 0.000000e+00, 1668 iterations, 0.69 seconds

    Nodes    |    Current Node    |     Objective Bounds      |     Work
 Expl Unexpl |  Obj  Depth IntInf | Incumbent    BestBd   Gap | It/Node Time

     0     0    0.00000    0    1          -    0.00000      -     -    9s
     0     0    0.00000    0    1          -    0.00000      -     -   11s
     0     2    0.00000    0    1          -    0.00000      -     -   14s
     1     4 1722.66789    1    3          -    0.00000      -  4423   18s
     3     6 1722.72560    2    3          -    0.00000      -  1475   23s
*    6     6               2    2162.2553444    0.00000   100%  1699   23s
     7     4 1722.72560    3    3 2162.25534    0.00000   100%  1456   30s
*   11     4               3    2162.1936531 1147.20043  46.9%  1701   30s
*   25     4               7    1262.9898415 1259.39313  0.28%   939   30s
*   29     2               8    1260.2089720 1259.81841  0.03%   837   30s

Explored 31 nodes (25945 simplex iterations) in 30.86 seconds
Thread count was 12 (of 12 available processors)

Solution count 4: 1260.21 1262.99 2162.19 2162.26 

Optimal solution found (tolerance 1.00e-04)
Best objective 1.260208971977e+03, best bound 1.260116162258e+03, gap 0.0074%
Optimize a model with 2005 rows, 9897 columns and 3795895 nonzeros
Model has 6001 general constraints
Variable types: 8006 continuous, 1891 integer (1891 binary)
Coefficient statistics:
  Matrix range     [1e+00, 5e+01]
  Objective range  [1e+00, 1e+00]
  Bounds range     [1e+00, 1e+02]
  RHS range        [1e+00, 1e+00]
Presolve removed 10004 rows and 16161 columns (presolve time = 5s) ...
Presolve added 10001 rows and 3847 columns
Presolve time: 8.84s
Presolved: 12006 rows, 13744 columns, 3507746 nonzeros
Presolved model has 4 SOS constraint(s)
Variable types: 8006 continuous, 5738 integer (5738 binary)

Deterministic concurrent LP optimizer: primal and dual simplex
Showing first log only...

Presolve removed 4005 rows and 4009 columns
Presolved: 8001 rows, 9735 columns, 3491734 nonzeros


Root simplex log...

Iteration    Objective       Primal Inf.    Dual Inf.      Time
       0    0.0000000e+00   1.473701e+03   3.253069e+12     10s
    1646    0.0000000e+00   0.000000e+00   0.000000e+00     10s
    1646    0.0000000e+00   0.000000e+00   0.000000e+00     10s
Concurrent spin time: 0.00s

Solved with primal simplex

Root relaxation: objective 0.000000e+00, 1646 iterations, 0.93 seconds

    Nodes    |    Current Node    |     Objective Bounds      |     Work
 Expl Unexpl |  Obj  Depth IntInf | Incumbent    BestBd   Gap | It/Node Time

     0     0    0.00000    0    7          -    0.00000      -     -   10s
     0     0    0.00000    0   14          -    0.00000      -     -   20s
     0     0    0.00000    0   16          -    0.00000      -     -   21s
     0     0    0.00000    0   14          -    0.00000      -     -   32s
     0     0    0.00000    0   21          -    0.00000      -     -   33s
     0     0    0.00000    0    1          -    0.00000      -     -   44s
     0     0    0.00000    0    1          -    0.00000      -     -   47s
H    0     0                    2297.6709751    0.00000   100%     -   48s
     0     2    0.00000    0    1 2297.67098    0.00000   100%     -   56s
     1     4 1429.81706    1    8 2297.67098    0.00000   100%  7804   62s
     3     6 1430.43055    2    7 2297.67098    0.00000   100%  2618   69s
     7     8 1430.43055    3    7 2297.67098    0.00000   100%  2227   82s
*   24    12               5    2049.8006325  499.90818  75.6%  1576   82s
*   40    20               4    2044.6995163  499.90818  75.6%  1092   82s
*  109    16              23     550.8817863  501.65411  8.94%   638   84s
   124     2  512.19045   25    8  550.88179  508.31036  7.73%   600   85s

Cutting planes:
  MIR: 8
  GUB cover: 5

Explored 148 nodes (93030 simplex iterations) in 86.23 seconds
Thread count was 12 (of 12 available processors)

Solution count 4: 550.882 2044.7 2049.8 2297.67 

Optimal solution found (tolerance 1.00e-04)
Best objective 5.508817863464e+02, best bound 5.508817863464e+02, gap 0.0000%
